; Options: -q --produce-models --incremental --print-success --lang smt2.6
(declare-fun start!82166 () Bool)

(assert start!82166)

(declare-fun b!957653 () Bool)

(declare-fun res!641038 () Bool)

(declare-fun e!539861 () Bool)

(assert (=> b!957653 (=> (not res!641038) (not e!539861))))

(declare-datatypes ((array!58393 0))(
  ( (array!58394 (arr!28070 (Array (_ BitVec 32) (_ BitVec 64))) (size!28549 (_ BitVec 32))) )
))
(declare-fun _keys!1668 () array!58393)

(declare-fun mask!2088 () (_ BitVec 32))

(declare-fun arrayForallSeekEntryOrOpenFound!0 ((_ BitVec 32) array!58393 (_ BitVec 32)) Bool)

(assert (=> b!957653 (= res!641038 (arrayForallSeekEntryOrOpenFound!0 #b00000000000000000000000000000000 _keys!1668 mask!2088))))

(declare-fun b!957654 () Bool)

(declare-fun e!539863 () Bool)

(declare-fun e!539865 () Bool)

(declare-fun mapRes!33697 () Bool)

(assert (=> b!957654 (= e!539863 (and e!539865 mapRes!33697))))

(declare-fun condMapEmpty!33697 () Bool)

(declare-datatypes ((V!33177 0))(
  ( (V!33178 (val!10623 Int)) )
))
(declare-datatypes ((ValueCell!10091 0))(
  ( (ValueCellFull!10091 (v!13180 V!33177)) (EmptyCell!10091) )
))
(declare-datatypes ((array!58395 0))(
  ( (array!58396 (arr!28071 (Array (_ BitVec 32) ValueCell!10091)) (size!28550 (_ BitVec 32))) )
))
(declare-fun _values!1386 () array!58395)

(declare-fun mapDefault!33697 () ValueCell!10091)

